(set-logic ALL)
(set-option :produce-models true)
(declare-sort BoundSet 0)
(declare-sort UnboundSet 0)
(declare-fun IsMagnificent (BoundSet) Bool)
(declare-fun CanChangeFundamentally (BoundSet) Bool)
(declare-fun IsRelativelyShort (BoundSet) Bool)
(declare-fun IsChangingFundamentally (BoundSet) Bool)
(assert (not (=> (and (exists ((a BoundSet)) (exists ((b BoundSet)) (and (IsMagnificent a) (and (CanChangeFundamentally a) (IsRelativelyShort b))))) (and (forall ((d BoundSet)) (=> (IsMagnificent d) (IsChangingFundamentally d))) (and (forall ((e BoundSet)) (=> (IsChangingFundamentally e) (IsMagnificent e))) (and (forall ((f BoundSet)) (=> (CanChangeFundamentally f) (IsChangingFundamentally f))) (forall ((g BoundSet)) (=> (IsChangingFundamentally g) (CanChangeFundamentally g))))))) (exists ((a BoundSet)) (IsChangingFundamentally a)))))
(check-sat)
(get-model)